BenchmarksExist/qemu/CWE-190-Integer-Overflow-or-Wraparound/CVE_2014_0143_6a83f8b5bec6f59e56cc49bd49e4c3f8f805d56f/cve1/qcow2_snapshot_load_tmp_SnippetExist32.smt2
; benchmark generated from python API
(set-info :status unknown)
(declare-fun rdi () (_ BitVec 64))
(assert
 (let ((?x11 ((_ extract 31 0) rdi)))
 (let (($x39 (bvsle ?x11 (_ bv33554432 32))))
 (and $x39))))
(check-sat)
